(set-info :smt-lib-version 2.6)
(set-logic QF_UF)
(set-info :source |
http://www.cs.bham.ac.uk/~vxs/quasigroups/benchmark/

|)
(set-info :category "crafted")
(set-info :status unsat)
(declare-sort U 0)
(declare-sort I 0)
(declare-fun op1 (I I) I)
(declare-fun op (I I) I)
(declare-fun e4 () I)
(declare-fun e3 () I)
(declare-fun e2 () I)
(declare-fun e1 () I)
(declare-fun e0 () I)
(assert (let ((_let_1 (op e4 e4))) (let ((_let_2 (op e4 e3))) (let ((_let_3 (op e4 e2))) (let ((_let_4 (op e4 e1))) (let ((_let_5 (op e4 e0))) (let ((_let_6 (op e3 e4))) (let ((_let_7 (op e3 e3))) (let ((_let_8 (op e3 e2))) (let ((_let_9 (op e3 e1))) (let ((_let_10 (op e3 e0))) (let ((_let_11 (op e2 e4))) (let ((_let_12 (op e2 e3))) (let ((_let_13 (op e2 e2))) (let ((_let_14 (op e2 e1))) (let ((_let_15 (op e2 e0))) (let ((_let_16 (op e1 e4))) (let ((_let_17 (op e1 e3))) (let ((_let_18 (op e1 e2))) (let ((_let_19 (op e1 e1))) (let ((_let_20 (op e1 e0))) (let ((_let_21 (op e0 e4))) (let ((_let_22 (op e0 e3))) (let ((_let_23 (op e0 e2))) (let ((_let_24 (op e0 e1))) (let ((_let_25 (op e0 e0))) (and (and (and (and (and (and (and (and (or (or (or (or (= _let_25 e0) (= _let_25 e1)) (= _let_25 e2)) (= _let_25 e3)) (= _let_25 e4)) (or (or (or (or (= _let_24 e0) (= _let_24 e1)) (= _let_24 e2)) (= _let_24 e3)) (= _let_24 e4))) (or (or (or (or (= _let_23 e0) (= _let_23 e1)) (= _let_23 e2)) (= _let_23 e3)) (= _let_23 e4))) (or (or (or (or (= _let_22 e0) (= _let_22 e1)) (= _let_22 e2)) (= _let_22 e3)) (= _let_22 e4))) (or (or (or (or (= _let_21 e0) (= _let_21 e1)) (= _let_21 e2)) (= _let_21 e3)) (= _let_21 e4))) (and (and (and (and (or (or (or (or (= _let_20 e0) (= _let_20 e1)) (= _let_20 e2)) (= _let_20 e3)) (= _let_20 e4)) (or (or (or (or (= _let_19 e0) (= _let_19 e1)) (= _let_19 e2)) (= _let_19 e3)) (= _let_19 e4))) (or (or (or (or (= _let_18 e0) (= _let_18 e1)) (= _let_18 e2)) (= _let_18 e3)) (= _let_18 e4))) (or (or (or (or (= _let_17 e0) (= _let_17 e1)) (= _let_17 e2)) (= _let_17 e3)) (= _let_17 e4))) (or (or (or (or (= _let_16 e0) (= _let_16 e1)) (= _let_16 e2)) (= _let_16 e3)) (= _let_16 e4)))) (and (and (and (and (or (or (or (or (= _let_15 e0) (= _let_15 e1)) (= _let_15 e2)) (= _let_15 e3)) (= _let_15 e4)) (or (or (or (or (= _let_14 e0) (= _let_14 e1)) (= _let_14 e2)) (= _let_14 e3)) (= _let_14 e4))) (or (or (or (or (= _let_13 e0) (= _let_13 e1)) (= _let_13 e2)) (= _let_13 e3)) (= _let_13 e4))) (or (or (or (or (= _let_12 e0) (= _let_12 e1)) (= _let_12 e2)) (= _let_12 e3)) (= _let_12 e4))) (or (or (or (or (= _let_11 e0) (= _let_11 e1)) (= _let_11 e2)) (= _let_11 e3)) (= _let_11 e4)))) (and (and (and (and (or (or (or (or (= _let_10 e0) (= _let_10 e1)) (= _let_10 e2)) (= _let_10 e3)) (= _let_10 e4)) (or (or (or (or (= _let_9 e0) (= _let_9 e1)) (= _let_9 e2)) (= _let_9 e3)) (= _let_9 e4))) (or (or (or (or (= _let_8 e0) (= _let_8 e1)) (= _let_8 e2)) (= _let_8 e3)) (= _let_8 e4))) (or (or (or (or (= _let_7 e0) (= _let_7 e1)) (= _let_7 e2)) (= _let_7 e3)) (= _let_7 e4))) (or (or (or (or (= _let_6 e0) (= _let_6 e1)) (= _let_6 e2)) (= _let_6 e3)) (= _let_6 e4)))) (and (and (and (and (or (or (or (or (= _let_5 e0) (= _let_5 e1)) (= _let_5 e2)) (= _let_5 e3)) (= _let_5 e4)) (or (or (or (or (= _let_4 e0) (= _let_4 e1)) (= _let_4 e2)) (= _let_4 e3)) (= _let_4 e4))) (or (or (or (or (= _let_3 e0) (= _let_3 e1)) (= _let_3 e2)) (= _let_3 e3)) (= _let_3 e4))) (or (or (or (or (= _let_2 e0) (= _let_2 e1)) (= _let_2 e2)) (= _let_2 e3)) (= _let_2 e4))) (or (or (or (or (= _let_1 e0) (= _let_1 e1)) (= _let_1 e2)) (= _let_1 e3)) (= _let_1 e4))))))))))))))))))))))))))))))
(assert (let ((_let_1 (op e4 e4))) (let ((_let_2 (= _let_1 e4))) (let ((_let_3 (op e3 e4))) (let ((_let_4 (= _let_3 e4))) (let ((_let_5 (op e2 e4))) (let ((_let_6 (= _let_5 e4))) (let ((_let_7 (op e1 e4))) (let ((_let_8 (= _let_7 e4))) (let ((_let_9 (op e0 e4))) (let ((_let_10 (= _let_9 e4))) (let ((_let_11 (op e4 e3))) (let ((_let_12 (= _let_11 e4))) (let ((_let_13 (op e4 e2))) (let ((_let_14 (= _let_13 e4))) (let ((_let_15 (op e4 e1))) (let ((_let_16 (= _let_15 e4))) (let ((_let_17 (op e4 e0))) (let ((_let_18 (= _let_17 e4))) (let ((_let_19 (= _let_1 e3))) (let ((_let_20 (= _let_3 e3))) (let ((_let_21 (= _let_5 e3))) (let ((_let_22 (= _let_7 e3))) (let ((_let_23 (= _let_9 e3))) (let ((_let_24 (= _let_11 e3))) (let ((_let_25 (= _let_13 e3))) (let ((_let_26 (= _let_15 e3))) (let ((_let_27 (= _let_17 e3))) (let ((_let_28 (= _let_1 e2))) (let ((_let_29 (= _let_3 e2))) (let ((_let_30 (= _let_5 e2))) (let ((_let_31 (= _let_7 e2))) (let ((_let_32 (= _let_9 e2))) (let ((_let_33 (= _let_11 e2))) (let ((_let_34 (= _let_13 e2))) (let ((_let_35 (= _let_15 e2))) (let ((_let_36 (= _let_17 e2))) (let ((_let_37 (= _let_1 e1))) (let ((_let_38 (= _let_3 e1))) (let ((_let_39 (= _let_5 e1))) (let ((_let_40 (= _let_7 e1))) (let ((_let_41 (= _let_9 e1))) (let ((_let_42 (= _let_11 e1))) (let ((_let_43 (= _let_13 e1))) (let ((_let_44 (= _let_15 e1))) (let ((_let_45 (= _let_17 e1))) (let ((_let_46 (= _let_1 e0))) (let ((_let_47 (= _let_3 e0))) (let ((_let_48 (= _let_5 e0))) (let ((_let_49 (= _let_7 e0))) (let ((_let_50 (= _let_9 e0))) (let ((_let_51 (= _let_11 e0))) (let ((_let_52 (= _let_13 e0))) (let ((_let_53 (= _let_15 e0))) (let ((_let_54 (= _let_17 e0))) (let ((_let_55 (op e3 e3))) (let ((_let_56 (= _let_55 e4))) (let ((_let_57 (op e2 e3))) (let ((_let_58 (= _let_57 e4))) (let ((_let_59 (op e1 e3))) (let ((_let_60 (= _let_59 e4))) (let ((_let_61 (op e0 e3))) (let ((_let_62 (= _let_61 e4))) (let ((_let_63 (op e3 e2))) (let ((_let_64 (= _let_63 e4))) (let ((_let_65 (op e3 e1))) (let ((_let_66 (= _let_65 e4))) (let ((_let_67 (op e3 e0))) (let ((_let_68 (= _let_67 e4))) (let ((_let_69 (= _let_55 e3))) (let ((_let_70 (= _let_57 e3))) (let ((_let_71 (= _let_59 e3))) (let ((_let_72 (= _let_61 e3))) (let ((_let_73 (= _let_63 e3))) (let ((_let_74 (= _let_65 e3))) (let ((_let_75 (= _let_67 e3))) (let ((_let_76 (= _let_55 e2))) (let ((_let_77 (= _let_57 e2))) (let ((_let_78 (= _let_59 e2))) (let ((_let_79 (= _let_61 e2))) (let ((_let_80 (= _let_63 e2))) (let ((_let_81 (= _let_65 e2))) (let ((_let_82 (= _let_67 e2))) (let ((_let_83 (= _let_55 e1))) (let ((_let_84 (= _let_57 e1))) (let ((_let_85 (= _let_59 e1))) (let ((_let_86 (= _let_61 e1))) (let ((_let_87 (= _let_63 e1))) (let ((_let_88 (= _let_65 e1))) (let ((_let_89 (= _let_67 e1))) (let ((_let_90 (= _let_55 e0))) (let ((_let_91 (= _let_57 e0))) (let ((_let_92 (= _let_59 e0))) (let ((_let_93 (= _let_61 e0))) (let ((_let_94 (= _let_63 e0))) (let ((_let_95 (= _let_65 e0))) (let ((_let_96 (= _let_67 e0))) (let ((_let_97 (op e2 e2))) (let ((_let_98 (= _let_97 e4))) (let ((_let_99 (op e1 e2))) (let ((_let_100 (= _let_99 e4))) (let ((_let_101 (op e0 e2))) (let ((_let_102 (= _let_101 e4))) (let ((_let_103 (op e2 e1))) (let ((_let_104 (= _let_103 e4))) (let ((_let_105 (op e2 e0))) (let ((_let_106 (= _let_105 e4))) (let ((_let_107 (= _let_97 e3))) (let ((_let_108 (= _let_99 e3))) (let ((_let_109 (= _let_101 e3))) (let ((_let_110 (= _let_103 e3))) (let ((_let_111 (= _let_105 e3))) (let ((_let_112 (= _let_97 e2))) (let ((_let_113 (= _let_99 e2))) (let ((_let_114 (= _let_101 e2))) (let ((_let_115 (= _let_103 e2))) (let ((_let_116 (= _let_105 e2))) (let ((_let_117 (= _let_97 e1))) (let ((_let_118 (= _let_99 e1))) (let ((_let_119 (= _let_101 e1))) (let ((_let_120 (= _let_103 e1))) (let ((_let_121 (= _let_105 e1))) (let ((_let_122 (= _let_97 e0))) (let ((_let_123 (= _let_99 e0))) (let ((_let_124 (= _let_101 e0))) (let ((_let_125 (= _let_103 e0))) (let ((_let_126 (= _let_105 e0))) (let ((_let_127 (op e1 e1))) (let ((_let_128 (= _let_127 e4))) (let ((_let_129 (op e0 e1))) (let ((_let_130 (= _let_129 e4))) (let ((_let_131 (op e1 e0))) (let ((_let_132 (= _let_131 e4))) (let ((_let_133 (= _let_127 e3))) (let ((_let_134 (= _let_129 e3))) (let ((_let_135 (= _let_131 e3))) (let ((_let_136 (= _let_127 e2))) (let ((_let_137 (= _let_129 e2))) (let ((_let_138 (= _let_131 e2))) (let ((_let_139 (= _let_127 e1))) (let ((_let_140 (= _let_129 e1))) (let ((_let_141 (= _let_131 e1))) (let ((_let_142 (= _let_127 e0))) (let ((_let_143 (= _let_129 e0))) (let ((_let_144 (= _let_131 e0))) (let ((_let_145 (op e0 e0))) (let ((_let_146 (= _let_145 e4))) (let ((_let_147 (= _let_145 e3))) (let ((_let_148 (= _let_145 e2))) (let ((_let_149 (= _let_145 e1))) (let ((_let_150 (= _let_145 e0))) (and (and (and (and (and (and (and (and (and (or (or (or (or _let_150 _let_143) _let_124) _let_93) _let_50) (or (or (or (or _let_150 _let_144) _let_126) _let_96) _let_54)) (and (or (or (or (or _let_149 _let_140) _let_119) _let_86) _let_41) (or (or (or (or _let_149 _let_141) _let_121) _let_89) _let_45))) (and (or (or (or (or _let_148 _let_137) _let_114) _let_79) _let_32) (or (or (or (or _let_148 _let_138) _let_116) _let_82) _let_36))) (and (or (or (or (or _let_147 _let_134) _let_109) _let_72) _let_23) (or (or (or (or _let_147 _let_135) _let_111) _let_75) _let_27))) (and (or (or (or (or _let_146 _let_130) _let_102) _let_62) _let_10) (or (or (or (or _let_146 _let_132) _let_106) _let_68) _let_18))) (and (and (and (and (and (or (or (or (or _let_144 _let_142) _let_123) _let_92) _let_49) (or (or (or (or _let_143 _let_142) _let_125) _let_95) _let_53)) (and (or (or (or (or _let_141 _let_139) _let_118) _let_85) _let_40) (or (or (or (or _let_140 _let_139) _let_120) _let_88) _let_44))) (and (or (or (or (or _let_138 _let_136) _let_113) _let_78) _let_31) (or (or (or (or _let_137 _let_136) _let_115) _let_81) _let_35))) (and (or (or (or (or _let_135 _let_133) _let_108) _let_71) _let_22) (or (or (or (or _let_134 _let_133) _let_110) _let_74) _let_26))) (and (or (or (or (or _let_132 _let_128) _let_100) _let_60) _let_8) (or (or (or (or _let_130 _let_128) _let_104) _let_66) _let_16)))) (and (and (and (and (and (or (or (or (or _let_126 _let_125) _let_122) _let_91) _let_48) (or (or (or (or _let_124 _let_123) _let_122) _let_94) _let_52)) (and (or (or (or (or _let_121 _let_120) _let_117) _let_84) _let_39) (or (or (or (or _let_119 _let_118) _let_117) _let_87) _let_43))) (and (or (or (or (or _let_116 _let_115) _let_112) _let_77) _let_30) (or (or (or (or _let_114 _let_113) _let_112) _let_80) _let_34))) (and (or (or (or (or _let_111 _let_110) _let_107) _let_70) _let_21) (or (or (or (or _let_109 _let_108) _let_107) _let_73) _let_25))) (and (or (or (or (or _let_106 _let_104) _let_98) _let_58) _let_6) (or (or (or (or _let_102 _let_100) _let_98) _let_64) _let_14)))) (and (and (and (and (and (or (or (or (or _let_96 _let_95) _let_94) _let_90) _let_47) (or (or (or (or _let_93 _let_92) _let_91) _let_90) _let_51)) (and (or (or (or (or _let_89 _let_88) _let_87) _let_83) _let_38) (or (or (or (or _let_86 _let_85) _let_84) _let_83) _let_42))) (and (or (or (or (or _let_82 _let_81) _let_80) _let_76) _let_29) (or (or (or (or _let_79 _let_78) _let_77) _let_76) _let_33))) (and (or (or (or (or _let_75 _let_74) _let_73) _let_69) _let_20) (or (or (or (or _let_72 _let_71) _let_70) _let_69) _let_24))) (and (or (or (or (or _let_68 _let_66) _let_64) _let_56) _let_4) (or (or (or (or _let_62 _let_60) _let_58) _let_56) _let_12)))) (and (and (and (and (and (or (or (or (or _let_54 _let_53) _let_52) _let_51) _let_46) (or (or (or (or _let_50 _let_49) _let_48) _let_47) _let_46)) (and (or (or (or (or _let_45 _let_44) _let_43) _let_42) _let_37) (or (or (or (or _let_41 _let_40) _let_39) _let_38) _let_37))) (and (or (or (or (or _let_36 _let_35) _let_34) _let_33) _let_28) (or (or (or (or _let_32 _let_31) _let_30) _let_29) _let_28))) (and (or (or (or (or _let_27 _let_26) _let_25) _let_24) _let_19) (or (or (or (or _let_23 _let_22) _let_21) _let_20) _let_19))) (and (or (or (or (or _let_18 _let_16) _let_14) _let_12) _let_2) (or (or (or (or _let_10 _let_8) _let_6) _let_4) _let_2)))))))))))))))))))))))))))))))))))))))))))))))))))))))))))))))))))))))))))))))))))))))))))))))))))))))))))))))))))))))))))))))))))))))))))))))))))))))))))
(assert (let ((_let_1 (op e4 e4))) (let ((_let_2 (op e3 e3))) (let ((_let_3 (op e2 e2))) (let ((_let_4 (op e1 e1))) (let ((_let_5 (op e0 e0))) (or (or (or (or (and (and (and (and (not (= _let_5 e0)) (not (= _let_4 e0))) (not (= _let_3 e0))) (not (= _let_2 e0))) (not (= _let_1 e0))) (and (and (and (and (not (= _let_5 e1)) (not (= _let_4 e1))) (not (= _let_3 e1))) (not (= _let_2 e1))) (not (= _let_1 e1)))) (and (and (and (and (not (= _let_5 e2)) (not (= _let_4 e2))) (not (= _let_3 e2))) (not (= _let_2 e2))) (not (= _let_1 e2)))) (and (and (and (and (not (= _let_5 e3)) (not (= _let_4 e3))) (not (= _let_3 e3))) (not (= _let_2 e3))) (not (= _let_1 e3)))) (and (and (and (and (not (= _let_5 e4)) (not (= _let_4 e4))) (not (= _let_3 e4))) (not (= _let_2 e4))) (not (= _let_1 e4))))))))))
(assert (let ((_let_1 (op e4 e4))) (let ((_let_2 (= _let_1 e4))) (let ((_let_3 (op e3 e4))) (let ((_let_4 (= _let_3 e4))) (let ((_let_5 (op e4 e3))) (let ((_let_6 (= _let_5 e4))) (let ((_let_7 (op e2 e4))) (let ((_let_8 (= _let_7 e4))) (let ((_let_9 (op e4 e2))) (let ((_let_10 (= _let_9 e4))) (let ((_let_11 (op e1 e4))) (let ((_let_12 (= _let_11 e4))) (let ((_let_13 (op e4 e1))) (let ((_let_14 (= _let_13 e4))) (let ((_let_15 (op e0 e4))) (let ((_let_16 (= _let_15 e4))) (let ((_let_17 (op e4 e0))) (let ((_let_18 (= _let_17 e4))) (let ((_let_19 (op e3 e3))) (let ((_let_20 (= _let_19 e4))) (let ((_let_21 (op e2 e3))) (let ((_let_22 (= _let_21 e4))) (let ((_let_23 (op e3 e2))) (let ((_let_24 (= _let_23 e4))) (let ((_let_25 (op e1 e3))) (let ((_let_26 (= _let_25 e4))) (let ((_let_27 (op e3 e1))) (let ((_let_28 (= _let_27 e4))) (let ((_let_29 (op e0 e3))) (let ((_let_30 (= _let_29 e4))) (let ((_let_31 (op e3 e0))) (let ((_let_32 (= _let_31 e4))) (let ((_let_33 (op e2 e2))) (let ((_let_34 (= _let_33 e4))) (let ((_let_35 (op e1 e2))) (let ((_let_36 (= _let_35 e4))) (let ((_let_37 (op e2 e1))) (let ((_let_38 (= _let_37 e4))) (let ((_let_39 (op e0 e2))) (let ((_let_40 (= _let_39 e4))) (let ((_let_41 (op e2 e0))) (let ((_let_42 (= _let_41 e4))) (let ((_let_43 (op e1 e1))) (let ((_let_44 (= _let_43 e4))) (let ((_let_45 (op e0 e1))) (let ((_let_46 (= _let_45 e4))) (let ((_let_47 (op e1 e0))) (let ((_let_48 (= _let_47 e4))) (let ((_let_49 (op e0 e0))) (let ((_let_50 (= _let_49 e4))) (let ((_let_51 (= _let_1 e3))) (let ((_let_52 (= _let_3 e3))) (let ((_let_53 (= _let_5 e3))) (let ((_let_54 (= _let_7 e3))) (let ((_let_55 (= _let_9 e3))) (let ((_let_56 (= _let_11 e3))) (let ((_let_57 (= _let_13 e3))) (let ((_let_58 (= _let_15 e3))) (let ((_let_59 (= _let_17 e3))) (let ((_let_60 (= _let_19 e3))) (let ((_let_61 (= _let_21 e3))) (let ((_let_62 (= _let_23 e3))) (let ((_let_63 (= _let_25 e3))) (let ((_let_64 (= _let_27 e3))) (let ((_let_65 (= _let_29 e3))) (let ((_let_66 (= _let_31 e3))) (let ((_let_67 (= _let_33 e3))) (let ((_let_68 (= _let_35 e3))) (let ((_let_69 (= _let_37 e3))) (let ((_let_70 (= _let_39 e3))) (let ((_let_71 (= _let_41 e3))) (let ((_let_72 (= _let_43 e3))) (let ((_let_73 (= _let_45 e3))) (let ((_let_74 (= _let_47 e3))) (let ((_let_75 (= _let_49 e3))) (let ((_let_76 (= _let_1 e2))) (let ((_let_77 (= _let_3 e2))) (let ((_let_78 (= _let_5 e2))) (let ((_let_79 (= _let_7 e2))) (let ((_let_80 (= _let_9 e2))) (let ((_let_81 (= _let_11 e2))) (let ((_let_82 (= _let_13 e2))) (let ((_let_83 (= _let_15 e2))) (let ((_let_84 (= _let_17 e2))) (let ((_let_85 (= _let_19 e2))) (let ((_let_86 (= _let_21 e2))) (let ((_let_87 (= _let_23 e2))) (let ((_let_88 (= _let_25 e2))) (let ((_let_89 (= _let_27 e2))) (let ((_let_90 (= _let_29 e2))) (let ((_let_91 (= _let_31 e2))) (let ((_let_92 (= _let_33 e2))) (let ((_let_93 (= _let_35 e2))) (let ((_let_94 (= _let_37 e2))) (let ((_let_95 (= _let_39 e2))) (let ((_let_96 (= _let_41 e2))) (let ((_let_97 (= _let_43 e2))) (let ((_let_98 (= _let_45 e2))) (let ((_let_99 (= _let_47 e2))) (let ((_let_100 (= _let_49 e2))) (let ((_let_101 (= _let_1 e1))) (let ((_let_102 (= _let_3 e1))) (let ((_let_103 (= _let_5 e1))) (let ((_let_104 (= _let_7 e1))) (let ((_let_105 (= _let_9 e1))) (let ((_let_106 (= _let_11 e1))) (let ((_let_107 (= _let_13 e1))) (let ((_let_108 (= _let_15 e1))) (let ((_let_109 (= _let_17 e1))) (let ((_let_110 (= _let_19 e1))) (let ((_let_111 (= _let_21 e1))) (let ((_let_112 (= _let_23 e1))) (let ((_let_113 (= _let_25 e1))) (let ((_let_114 (= _let_27 e1))) (let ((_let_115 (= _let_29 e1))) (let ((_let_116 (= _let_31 e1))) (let ((_let_117 (= _let_33 e1))) (let ((_let_118 (= _let_35 e1))) (let ((_let_119 (= _let_37 e1))) (let ((_let_120 (= _let_39 e1))) (let ((_let_121 (= _let_41 e1))) (let ((_let_122 (= _let_43 e1))) (let ((_let_123 (= _let_45 e1))) (let ((_let_124 (= _let_47 e1))) (let ((_let_125 (= _let_49 e1))) (let ((_let_126 (= _let_1 e0))) (let ((_let_127 (= _let_3 e0))) (let ((_let_128 (= _let_5 e0))) (let ((_let_129 (= _let_7 e0))) (let ((_let_130 (= _let_9 e0))) (let ((_let_131 (= _let_11 e0))) (let ((_let_132 (= _let_13 e0))) (let ((_let_133 (= _let_15 e0))) (let ((_let_134 (= _let_17 e0))) (let ((_let_135 (= _let_19 e0))) (let ((_let_136 (= _let_21 e0))) (let ((_let_137 (= _let_23 e0))) (let ((_let_138 (= _let_25 e0))) (let ((_let_139 (= _let_27 e0))) (let ((_let_140 (= _let_29 e0))) (let ((_let_141 (= _let_31 e0))) (let ((_let_142 (= _let_33 e0))) (let ((_let_143 (= _let_35 e0))) (let ((_let_144 (= _let_37 e0))) (let ((_let_145 (= _let_39 e0))) (let ((_let_146 (= _let_41 e0))) (let ((_let_147 (= _let_43 e0))) (let ((_let_148 (= _let_45 e0))) (let ((_let_149 (= _let_47 e0))) (let ((_let_150 (= _let_49 e0))) (and (and (and (and (or (or (or (or (or (or (or (or (and _let_150 _let_150) (and _let_148 _let_149)) (and _let_145 _let_146)) (and _let_140 _let_141)) (and _let_133 _let_134)) (or (or (or (or (and _let_149 _let_148) (and _let_147 _let_147)) (and _let_143 _let_144)) (and _let_138 _let_139)) (and _let_131 _let_132))) (or (or (or (or (and _let_146 _let_145) (and _let_144 _let_143)) (and _let_142 _let_142)) (and _let_136 _let_137)) (and _let_129 _let_130))) (or (or (or (or (and _let_141 _let_140) (and _let_139 _let_138)) (and _let_137 _let_136)) (and _let_135 _let_135)) (and _let_127 _let_128))) (or (or (or (or (and _let_134 _let_133) (and _let_132 _let_131)) (and _let_130 _let_129)) (and _let_128 _let_127)) (and _let_126 _let_126))) (or (or (or (or (or (or (or (or (and _let_125 _let_125) (and _let_123 _let_124)) (and _let_120 _let_121)) (and _let_115 _let_116)) (and _let_108 _let_109)) (or (or (or (or (and _let_124 _let_123) (and _let_122 _let_122)) (and _let_118 _let_119)) (and _let_113 _let_114)) (and _let_106 _let_107))) (or (or (or (or (and _let_121 _let_120) (and _let_119 _let_118)) (and _let_117 _let_117)) (and _let_111 _let_112)) (and _let_104 _let_105))) (or (or (or (or (and _let_116 _let_115) (and _let_114 _let_113)) (and _let_112 _let_111)) (and _let_110 _let_110)) (and _let_102 _let_103))) (or (or (or (or (and _let_109 _let_108) (and _let_107 _let_106)) (and _let_105 _let_104)) (and _let_103 _let_102)) (and _let_101 _let_101)))) (or (or (or (or (or (or (or (or (and _let_100 _let_100) (and _let_98 _let_99)) (and _let_95 _let_96)) (and _let_90 _let_91)) (and _let_83 _let_84)) (or (or (or (or (and _let_99 _let_98) (and _let_97 _let_97)) (and _let_93 _let_94)) (and _let_88 _let_89)) (and _let_81 _let_82))) (or (or (or (or (and _let_96 _let_95) (and _let_94 _let_93)) (and _let_92 _let_92)) (and _let_86 _let_87)) (and _let_79 _let_80))) (or (or (or (or (and _let_91 _let_90) (and _let_89 _let_88)) (and _let_87 _let_86)) (and _let_85 _let_85)) (and _let_77 _let_78))) (or (or (or (or (and _let_84 _let_83) (and _let_82 _let_81)) (and _let_80 _let_79)) (and _let_78 _let_77)) (and _let_76 _let_76)))) (or (or (or (or (or (or (or (or (and _let_75 _let_75) (and _let_73 _let_74)) (and _let_70 _let_71)) (and _let_65 _let_66)) (and _let_58 _let_59)) (or (or (or (or (and _let_74 _let_73) (and _let_72 _let_72)) (and _let_68 _let_69)) (and _let_63 _let_64)) (and _let_56 _let_57))) (or (or (or (or (and _let_71 _let_70) (and _let_69 _let_68)) (and _let_67 _let_67)) (and _let_61 _let_62)) (and _let_54 _let_55))) (or (or (or (or (and _let_66 _let_65) (and _let_64 _let_63)) (and _let_62 _let_61)) (and _let_60 _let_60)) (and _let_52 _let_53))) (or (or (or (or (and _let_59 _let_58) (and _let_57 _let_56)) (and _let_55 _let_54)) (and _let_53 _let_52)) (and _let_51 _let_51)))) (or (or (or (or (or (or (or (or (and _let_50 _let_50) (and _let_46 _let_48)) (and _let_40 _let_42)) (and _let_30 _let_32)) (and _let_16 _let_18)) (or (or (or (or (and _let_48 _let_46) (and _let_44 _let_44)) (and _let_36 _let_38)) (and _let_26 _let_28)) (and _let_12 _let_14))) (or (or (or (or (and _let_42 _let_40) (and _let_38 _let_36)) (and _let_34 _let_34)) (and _let_22 _let_24)) (and _let_8 _let_10))) (or (or (or (or (and _let_32 _let_30) (and _let_28 _let_26)) (and _let_24 _let_22)) (and _let_20 _let_20)) (and _let_4 _let_6))) (or (or (or (or (and _let_18 _let_16) (and _let_14 _let_12)) (and _let_10 _let_8)) (and _let_6 _let_4)) (and _let_2 _let_2)))))))))))))))))))))))))))))))))))))))))))))))))))))))))))))))))))))))))))))))))))))))))))))))))))))))))))))))))))))))))))))))))))))))))))))))))))))))))))
(assert (let ((_let_1 (op e4 e4))) (let ((_let_2 (op e3 e4))) (let ((_let_3 (op e4 e3))) (let ((_let_4 (op e2 e4))) (let ((_let_5 (op e4 e2))) (let ((_let_6 (op e1 e4))) (let ((_let_7 (op e4 e1))) (let ((_let_8 (op e0 e4))) (let ((_let_9 (op e4 e0))) (let ((_let_10 (op e3 e3))) (let ((_let_11 (op e2 e3))) (let ((_let_12 (op e3 e2))) (let ((_let_13 (op e1 e3))) (let ((_let_14 (op e3 e1))) (let ((_let_15 (op e0 e3))) (let ((_let_16 (op e3 e0))) (let ((_let_17 (op e2 e2))) (let ((_let_18 (op e1 e2))) (let ((_let_19 (op e2 e1))) (let ((_let_20 (op e0 e2))) (let ((_let_21 (op e2 e0))) (let ((_let_22 (op e1 e1))) (let ((_let_23 (op e0 e1))) (let ((_let_24 (op e1 e0))) (let ((_let_25 (op e0 e0))) (or (or (or (or (and (and (and (and (= _let_25 _let_25) (= _let_23 _let_24)) (= _let_20 _let_21)) (= _let_15 _let_16)) (= _let_8 _let_9)) (and (and (and (and (= _let_24 _let_23) (= _let_22 _let_22)) (= _let_18 _let_19)) (= _let_13 _let_14)) (= _let_6 _let_7))) (and (and (and (and (= _let_21 _let_20) (= _let_19 _let_18)) (= _let_17 _let_17)) (= _let_11 _let_12)) (= _let_4 _let_5))) (and (and (and (and (= _let_16 _let_15) (= _let_14 _let_13)) (= _let_12 _let_11)) (= _let_10 _let_10)) (= _let_2 _let_3))) (and (and (and (and (= _let_9 _let_8) (= _let_7 _let_6)) (= _let_5 _let_4)) (= _let_3 _let_2)) (= _let_1 _let_1)))))))))))))))))))))))))))))
(assert (or (or (or (or (= (op e0 e0) e0) (= (op e1 e1) e1)) (= (op e2 e2) e2)) (= (op e3 e3) e3)) (= (op e4 e4) e4)))
(assert (and (and (and (and (or (or (or (or (= (op (op e0 e0) e0) e0) (= (op (op e0 e1) e0) e1)) (= (op (op e0 e2) e0) e2)) (= (op (op e0 e3) e0) e3)) (= (op (op e0 e4) e0) e4)) (or (or (or (or (= (op (op e1 e0) e1) e0) (= (op (op e1 e1) e1) e1)) (= (op (op e1 e2) e1) e2)) (= (op (op e1 e3) e1) e3)) (= (op (op e1 e4) e1) e4))) (or (or (or (or (= (op (op e2 e0) e2) e0) (= (op (op e2 e1) e2) e1)) (= (op (op e2 e2) e2) e2)) (= (op (op e2 e3) e2) e3)) (= (op (op e2 e4) e2) e4))) (or (or (or (or (= (op (op e3 e0) e3) e0) (= (op (op e3 e1) e3) e1)) (= (op (op e3 e2) e3) e2)) (= (op (op e3 e3) e3) e3)) (= (op (op e3 e4) e3) e4))) (or (or (or (or (= (op (op e4 e0) e4) e0) (= (op (op e4 e1) e4) e1)) (= (op (op e4 e2) e4) e2)) (= (op (op e4 e3) e4) e3)) (= (op (op e4 e4) e4) e4))))
(assert (and (and (and (and (or (or (or (or (= (op e0 (op e0 e0)) e0) (= (op e0 (op e0 e1)) e1)) (= (op e0 (op e0 e2)) e2)) (= (op e0 (op e0 e3)) e3)) (= (op e0 (op e0 e4)) e4)) (or (or (or (or (= (op e1 (op e1 e0)) e0) (= (op e1 (op e1 e1)) e1)) (= (op e1 (op e1 e2)) e2)) (= (op e1 (op e1 e3)) e3)) (= (op e1 (op e1 e4)) e4))) (or (or (or (or (= (op e2 (op e2 e0)) e0) (= (op e2 (op e2 e1)) e1)) (= (op e2 (op e2 e2)) e2)) (= (op e2 (op e2 e3)) e3)) (= (op e2 (op e2 e4)) e4))) (or (or (or (or (= (op e3 (op e3 e0)) e0) (= (op e3 (op e3 e1)) e1)) (= (op e3 (op e3 e2)) e2)) (= (op e3 (op e3 e3)) e3)) (= (op e3 (op e3 e4)) e4))) (or (or (or (or (= (op e4 (op e4 e0)) e0) (= (op e4 (op e4 e1)) e1)) (= (op e4 (op e4 e2)) e2)) (= (op e4 (op e4 e3)) e3)) (= (op e4 (op e4 e4)) e4))))
(assert (let ((_let_1 (= (op e4 e4) e4))) (let ((_let_2 (op e3 e4))) (let ((_let_3 (op e4 e3))) (let ((_let_4 (op e2 e4))) (let ((_let_5 (op e4 e2))) (let ((_let_6 (op e1 e4))) (let ((_let_7 (op e4 e1))) (let ((_let_8 (op e0 e4))) (let ((_let_9 (op e4 e0))) (let ((_let_10 (= (op e3 e3) e3))) (let ((_let_11 (op e2 e3))) (let ((_let_12 (op e3 e2))) (let ((_let_13 (op e1 e3))) (let ((_let_14 (op e3 e1))) (let ((_let_15 (op e0 e3))) (let ((_let_16 (op e3 e0))) (let ((_let_17 (= (op e2 e2) e2))) (let ((_let_18 (op e1 e2))) (let ((_let_19 (op e2 e1))) (let ((_let_20 (op e0 e2))) (let ((_let_21 (op e2 e0))) (let ((_let_22 (= (op e1 e1) e1))) (let ((_let_23 (op e0 e1))) (let ((_let_24 (op e1 e0))) (let ((_let_25 (= (op e0 e0) e0))) (and (and (and (and (and (and (and (and (or (not _let_25) _let_25) (or (not (= _let_23 e0)) (= _let_24 e0))) (or (not (= _let_20 e0)) (= _let_21 e0))) (or (not (= _let_15 e0)) (= _let_16 e0))) (or (not (= _let_8 e0)) (= _let_9 e0))) (and (and (and (and (or (not (= _let_24 e1)) (= _let_23 e1)) (or (not _let_22) _let_22)) (or (not (= _let_18 e1)) (= _let_19 e1))) (or (not (= _let_13 e1)) (= _let_14 e1))) (or (not (= _let_6 e1)) (= _let_7 e1)))) (and (and (and (and (or (not (= _let_21 e2)) (= _let_20 e2)) (or (not (= _let_19 e2)) (= _let_18 e2))) (or (not _let_17) _let_17)) (or (not (= _let_11 e2)) (= _let_12 e2))) (or (not (= _let_4 e2)) (= _let_5 e2)))) (and (and (and (and (or (not (= _let_16 e3)) (= _let_15 e3)) (or (not (= _let_14 e3)) (= _let_13 e3))) (or (not (= _let_12 e3)) (= _let_11 e3))) (or (not _let_10) _let_10)) (or (not (= _let_2 e3)) (= _let_3 e3)))) (and (and (and (and (or (not (= _let_9 e4)) (= _let_8 e4)) (or (not (= _let_7 e4)) (= _let_6 e4))) (or (not (= _let_5 e4)) (= _let_4 e4))) (or (not (= _let_3 e4)) (= _let_2 e4))) (or (not _let_1) _let_1)))))))))))))))))))))))))))))
(assert (and (and (and (and (= (op e0 (op e0 e0)) e0) (= (op e1 (op e1 e1)) e1)) (= (op e2 (op e2 e2)) e2)) (= (op e3 (op e3 e3)) e3)) (= (op e4 (op e4 e4)) e4)))
(assert (and (and (and (and (and (and (and (and (= (op (op e0 e0) e0) e0) (= (op (op e0 e1) e0) e1)) (= (op (op e0 e2) e0) e2)) (= (op (op e0 e3) e0) e3)) (= (op (op e0 e4) e0) e4)) (and (and (and (and (= (op (op e1 e0) e1) e0) (= (op (op e1 e1) e1) e1)) (= (op (op e1 e2) e1) e2)) (= (op (op e1 e3) e1) e3)) (= (op (op e1 e4) e1) e4))) (and (and (and (and (= (op (op e2 e0) e2) e0) (= (op (op e2 e1) e2) e1)) (= (op (op e2 e2) e2) e2)) (= (op (op e2 e3) e2) e3)) (= (op (op e2 e4) e2) e4))) (and (and (and (and (= (op (op e3 e0) e3) e0) (= (op (op e3 e1) e3) e1)) (= (op (op e3 e2) e3) e2)) (= (op (op e3 e3) e3) e3)) (= (op (op e3 e4) e3) e4))) (and (and (and (and (= (op (op e4 e0) e4) e0) (= (op (op e4 e1) e4) e1)) (= (op (op e4 e2) e4) e2)) (= (op (op e4 e3) e4) e3)) (= (op (op e4 e4) e4) e4))))
(assert (let ((_let_1 (op e4 e4))) (let ((_let_2 (op e3 e3))) (let ((_let_3 (op e2 e2))) (let ((_let_4 (op e1 e1))) (let ((_let_5 (op e0 e0))) (or (or (or (or (not (= (op _let_5 _let_5) _let_5)) (not (= (op _let_4 _let_4) _let_4))) (not (= (op _let_3 _let_3) _let_3))) (not (= (op _let_2 _let_2) _let_2))) (not (= (op _let_1 _let_1) _let_1)))))))))
(assert (let ((_let_1 (op e4 e4))) (let ((_let_2 (op e4 e3))) (let ((_let_3 (op e4 e2))) (let ((_let_4 (op e4 e1))) (let ((_let_5 (op e4 e0))) (let ((_let_6 (op e3 e4))) (let ((_let_7 (op e3 e3))) (let ((_let_8 (op e3 e2))) (let ((_let_9 (op e3 e1))) (let ((_let_10 (op e3 e0))) (let ((_let_11 (op e2 e4))) (let ((_let_12 (op e2 e3))) (let ((_let_13 (op e2 e2))) (let ((_let_14 (op e2 e1))) (let ((_let_15 (op e2 e0))) (let ((_let_16 (op e1 e4))) (let ((_let_17 (op e1 e3))) (let ((_let_18 (op e1 e2))) (let ((_let_19 (op e1 e1))) (let ((_let_20 (op e1 e0))) (let ((_let_21 (op e0 e4))) (let ((_let_22 (op e0 e3))) (let ((_let_23 (op e0 e2))) (let ((_let_24 (op e0 e1))) (let ((_let_25 (op e0 e0))) (and (and (and (and (and (and (and (and (and (and (and (and (and (and (not (= _let_25 _let_20)) (not (= _let_25 _let_15))) (not (= _let_25 _let_10))) (not (= _let_25 _let_5))) (not (= _let_20 _let_15))) (not (= _let_20 _let_10))) (not (= _let_20 _let_5))) (not (= _let_15 _let_10))) (not (= _let_15 _let_5))) (not (= _let_10 _let_5))) (and (and (and (and (and (and (and (and (and (not (= _let_24 _let_19)) (not (= _let_24 _let_14))) (not (= _let_24 _let_9))) (not (= _let_24 _let_4))) (not (= _let_19 _let_14))) (not (= _let_19 _let_9))) (not (= _let_19 _let_4))) (not (= _let_14 _let_9))) (not (= _let_14 _let_4))) (not (= _let_9 _let_4)))) (and (and (and (and (and (and (and (and (and (not (= _let_23 _let_18)) (not (= _let_23 _let_13))) (not (= _let_23 _let_8))) (not (= _let_23 _let_3))) (not (= _let_18 _let_13))) (not (= _let_18 _let_8))) (not (= _let_18 _let_3))) (not (= _let_13 _let_8))) (not (= _let_13 _let_3))) (not (= _let_8 _let_3)))) (and (and (and (and (and (and (and (and (and (not (= _let_22 _let_17)) (not (= _let_22 _let_12))) (not (= _let_22 _let_7))) (not (= _let_22 _let_2))) (not (= _let_17 _let_12))) (not (= _let_17 _let_7))) (not (= _let_17 _let_2))) (not (= _let_12 _let_7))) (not (= _let_12 _let_2))) (not (= _let_7 _let_2)))) (and (and (and (and (and (and (and (and (and (not (= _let_21 _let_16)) (not (= _let_21 _let_11))) (not (= _let_21 _let_6))) (not (= _let_21 _let_1))) (not (= _let_16 _let_11))) (not (= _let_16 _let_6))) (not (= _let_16 _let_1))) (not (= _let_11 _let_6))) (not (= _let_11 _let_1))) (not (= _let_6 _let_1)))) (and (and (and (and (and (and (and (and (and (and (and (and (and (not (= _let_25 _let_24)) (not (= _let_25 _let_23))) (not (= _let_25 _let_22))) (not (= _let_25 _let_21))) (not (= _let_24 _let_23))) (not (= _let_24 _let_22))) (not (= _let_24 _let_21))) (not (= _let_23 _let_22))) (not (= _let_23 _let_21))) (not (= _let_22 _let_21))) (and (and (and (and (and (and (and (and (and (not (= _let_20 _let_19)) (not (= _let_20 _let_18))) (not (= _let_20 _let_17))) (not (= _let_20 _let_16))) (not (= _let_19 _let_18))) (not (= _let_19 _let_17))) (not (= _let_19 _let_16))) (not (= _let_18 _let_17))) (not (= _let_18 _let_16))) (not (= _let_17 _let_16)))) (and (and (and (and (and (and (and (and (and (not (= _let_15 _let_14)) (not (= _let_15 _let_13))) (not (= _let_15 _let_12))) (not (= _let_15 _let_11))) (not (= _let_14 _let_13))) (not (= _let_14 _let_12))) (not (= _let_14 _let_11))) (not (= _let_13 _let_12))) (not (= _let_13 _let_11))) (not (= _let_12 _let_11)))) (and (and (and (and (and (and (and (and (and (not (= _let_10 _let_9)) (not (= _let_10 _let_8))) (not (= _let_10 _let_7))) (not (= _let_10 _let_6))) (not (= _let_9 _let_8))) (not (= _let_9 _let_7))) (not (= _let_9 _let_6))) (not (= _let_8 _let_7))) (not (= _let_8 _let_6))) (not (= _let_7 _let_6)))) (and (and (and (and (and (and (and (and (and (not (= _let_5 _let_4)) (not (= _let_5 _let_3))) (not (= _let_5 _let_2))) (not (= _let_5 _let_1))) (not (= _let_4 _let_3))) (not (= _let_4 _let_2))) (not (= _let_4 _let_1))) (not (= _let_3 _let_2))) (not (= _let_3 _let_1))) (not (= _let_2 _let_1)))))))))))))))))))))))))))))))
(assert (and (and (and (and (and (and (and (and (and (not (= e0 e1)) (not (= e0 e2))) (not (= e0 e3))) (not (= e0 e4))) (not (= e1 e2))) (not (= e1 e3))) (not (= e1 e4))) (not (= e2 e3))) (not (= e2 e4))) (not (= e3 e4))))
(assert (and (and (and (= e0 (op e3 e3)) (= e1 (op e0 e0))) (= e2 (op e1 e3))) (= e4 (op e1 e2))))
(assert (not (and (and (and (and (and (and (and (and (and (and (and (and (and (and (and (and (and (and (and (and (and (and (and (and (= (op e0 e0) e1) (= (op e0 e1) e0)) (= (op e0 e2) e2)) (= (op e0 e3) e3)) (= (op e0 e4) e4)) (= (op e1 e0) e0)) (= (op e1 e1) e1)) (= (op e1 e2) e4)) (= (op e1 e3) e2)) (= (op e1 e4) e3)) (= (op e2 e0) e2)) (= (op e2 e1) e3)) (= (op e2 e2) e0)) (= (op e2 e3) e4)) (= (op e2 e4) e1)) (= (op e3 e0) e3)) (= (op e3 e1) e4)) (= (op e3 e2) e1)) (= (op e3 e3) e0)) (= (op e3 e4) e2)) (= (op e4 e0) e4)) (= (op e4 e1) e2)) (= (op e4 e2) e3)) (= (op e4 e3) e1)) (= (op e4 e4) e0))))
(assert (not (and (and (and (and (and (and (and (and (and (and (and (and (and (and (and (and (and (and (and (and (and (and (and (and (= (op e0 e0) e1) (= (op e0 e1) e0)) (= (op e0 e2) e2)) (= (op e0 e3) e3)) (= (op e0 e4) e4)) (= (op e1 e0) e0)) (= (op e1 e1) e1)) (= (op e1 e2) e4)) (= (op e1 e3) e2)) (= (op e1 e4) e3)) (= (op e2 e0) e2)) (= (op e2 e1) e3)) (= (op e2 e2) e0)) (= (op e2 e3) e4)) (= (op e2 e4) e1)) (= (op e3 e0) e3)) (= (op e3 e1) e4)) (= (op e3 e2) e1)) (= (op e3 e3) e0)) (= (op e3 e4) e2)) (= (op e4 e0) e4)) (= (op e4 e1) e2)) (= (op e4 e2) e3)) (= (op e4 e3) e1)) (= (op e4 e4) e0))))
(assert (not (and (and (and (and (and (and (and (and (and (and (and (and (and (and (and (and (and (and (and (and (and (and (and (and (= (op e0 e0) e1) (= (op e0 e1) e0)) (= (op e0 e2) e2)) (= (op e0 e3) e3)) (= (op e0 e4) e4)) (= (op e1 e0) e0)) (= (op e1 e1) e1)) (= (op e1 e2) e4)) (= (op e1 e3) e2)) (= (op e1 e4) e3)) (= (op e2 e0) e2)) (= (op e2 e1) e3)) (= (op e2 e2) e0)) (= (op e2 e3) e4)) (= (op e2 e4) e1)) (= (op e3 e0) e3)) (= (op e3 e1) e4)) (= (op e3 e2) e1)) (= (op e3 e3) e0)) (= (op e3 e4) e2)) (= (op e4 e0) e4)) (= (op e4 e1) e2)) (= (op e4 e2) e3)) (= (op e4 e3) e1)) (= (op e4 e4) e0))))
(check-sat)
(exit)
